11
0 40 12 95 16 40 5 86 66 64 14 
71 0 72 83 97 38 29 58 32 79 92 
21 66 0 64 78 23 56 50 11 88 42 
91 59 61 0 27 96 95 7 10 12 8 
52 63 18 83 0 23 2 79 6 44 58 
37 42 82 80 33 0 49 92 56 92 30 
62 36 8 62 42 21 0 90 45 79 63 
93 58 25 97 97 11 33 0 99 24 77 
98 97 89 22 79 41 40 36 0 35 69 
26 49 35 71 37 63 23 28 58 0 78 
72 66 8 71 75 58 100 76 14 50 0 
